c nIsolatedPIs 8
c maxPI 24
p cnf 132 325
c gate 25 -11 23 0
-11 -25 0
23 -25 0
11 -23 25 0
c gate 26 -12 24 0
-12 -26 0
24 -26 0
12 -24 26 0
c gate 27 -25 -26 0
-25 -27 0
-26 -27 0
25 26 27 0
c gate 28 11 -23 0
11 -28 0
-23 -28 0
-11 23 28 0
c gate 29 -9 21 0
-9 -29 0
21 -29 0
9 -21 29 0
c gate 30 -4 16 0
-4 -30 0
16 -30 0
4 -16 30 0
c gate 31 -1 13 0
-1 -31 0
13 -31 0
1 -13 31 0
c gate 32 -30 -31 0
-30 -32 0
-31 -32 0
30 31 32 0
c gate 33 4 -16 0
4 -33 0
-16 -33 0
-4 16 33 0
c gate 34 5 -17 0
5 -34 0
-17 -34 0
-5 17 34 0
c gate 35 -33 -34 0
-33 -35 0
-34 -35 0
33 34 35 0
c gate 36 -32 35 0
-32 -36 0
35 -36 0
32 -35 36 0
c gate 37 -6 18 0
-6 -37 0
18 -37 0
6 -18 37 0
c gate 38 -5 17 0
-5 -38 0
17 -38 0
5 -17 38 0
c gate 39 -37 -38 0
-37 -39 0
-38 -39 0
37 38 39 0
c gate 40 -36 39 0
-36 -40 0
39 -40 0
36 -39 40 0
c gate 41 7 -19 0
7 -41 0
-19 -41 0
-7 19 41 0
c gate 42 6 -18 0
6 -42 0
-18 -42 0
-6 18 42 0
c gate 43 -41 -42 0
-41 -43 0
-42 -43 0
41 42 43 0
c gate 44 -40 43 0
-40 -44 0
43 -44 0
40 -43 44 0
c gate 45 -8 -20 0
-8 -45 0
-20 -45 0
8 20 45 0
c gate 46 8 20 0
8 -46 0
20 -46 0
-8 -20 46 0
c gate 47 -45 -46 0
-45 -47 0
-46 -47 0
45 46 47 0
c gate 48 -7 19 0
-7 -48 0
19 -48 0
7 -19 48 0
c gate 49 -47 -48 0
-47 -49 0
-48 -49 0
47 48 49 0
c gate 50 -44 49 0
-44 -50 0
49 -50 0
44 -49 50 0
c gate 51 9 -21 0
9 -51 0
-21 -51 0
-9 21 51 0
c gate 52 8 -20 0
8 -52 0
-20 -52 0
-8 20 52 0
c gate 53 -51 -52 0
-51 -53 0
-52 -53 0
51 52 53 0
c gate 54 -50 53 0
-50 -54 0
53 -54 0
50 -53 54 0
c gate 55 -29 -54 0
-29 -55 0
-54 -55 0
29 54 55 0
c gate 56 10 -22 0
10 -56 0
-22 -56 0
-10 22 56 0
c gate 57 -55 -56 0
-55 -57 0
-56 -57 0
55 56 57 0
c gate 58 -10 22 0
-10 -58 0
22 -58 0
10 -22 58 0
c gate 59 -57 -58 0
-57 -59 0
-58 -59 0
57 58 59 0
c gate 60 -28 -59 0
-28 -60 0
-59 -60 0
28 59 60 0
c gate 61 27 -60 0
27 -61 0
-60 -61 0
-27 60 61 0
c gate 62 -28 -56 0
-28 -62 0
-56 -62 0
28 56 62 0
c gate 63 27 -62 0
27 -63 0
-62 -63 0
-27 62 63 0
c gate 64 2 14 0
2 -64 0
14 -64 0
-2 -14 64 0
c gate 65 -2 -14 0
-2 -65 0
-14 -65 0
2 14 65 0
c gate 66 -64 -65 0
-64 -66 0
-65 -66 0
64 65 66 0
c gate 67 -63 66 0
-63 -67 0
66 -67 0
63 -66 67 0
c gate 68 61 -67 0
61 -68 0
-67 -68 0
-61 67 68 0
c gate 69 12 -24 0
12 -69 0
-24 -69 0
-12 24 69 0
c gate 70 -61 67 0
-61 -70 0
67 -70 0
61 -67 70 0
c gate 71 -69 -70 0
-69 -71 0
-70 -71 0
69 70 71 0
c gate 72 -68 71 0
-68 -72 0
71 -72 0
68 -71 72 0
c gate 73 11 23 0
11 -73 0
23 -73 0
-11 -23 73 0
c gate 74 -10 -22 0
-10 -74 0
-22 -74 0
10 22 74 0
c gate 75 4 16 0
4 -75 0
16 -75 0
-4 -16 75 0
c gate 76 1 13 0
1 -76 0
13 -76 0
-1 -13 76 0
c gate 77 -75 -76 0
-75 -77 0
-76 -77 0
75 76 77 0
c gate 78 -4 -16 0
-4 -78 0
-16 -78 0
4 16 78 0
c gate 79 -5 -17 0
-5 -79 0
-17 -79 0
5 17 79 0
c gate 80 -78 -79 0
-78 -80 0
-79 -80 0
78 79 80 0
c gate 81 -77 80 0
-77 -81 0
80 -81 0
77 -80 81 0
c gate 82 6 18 0
6 -82 0
18 -82 0
-6 -18 82 0
c gate 83 5 17 0
5 -83 0
17 -83 0
-5 -17 83 0
c gate 84 -82 -83 0
-82 -84 0
-83 -84 0
82 83 84 0
c gate 85 -81 84 0
-81 -85 0
84 -85 0
81 -84 85 0
c gate 86 -7 -19 0
-7 -86 0
-19 -86 0
7 19 86 0
c gate 87 -6 -18 0
-6 -87 0
-18 -87 0
6 18 87 0
c gate 88 -86 -87 0
-86 -88 0
-87 -88 0
86 87 88 0
c gate 89 -85 88 0
-85 -89 0
88 -89 0
85 -88 89 0
c gate 90 7 19 0
7 -90 0
19 -90 0
-7 -19 90 0
c gate 91 47 -90 0
47 -91 0
-90 -91 0
-47 90 91 0
c gate 92 -89 91 0
-89 -92 0
91 -92 0
89 -91 92 0
c gate 93 -9 -21 0
-9 -93 0
-21 -93 0
9 21 93 0
c gate 94 -45 -93 0
-45 -94 0
-93 -94 0
45 93 94 0
c gate 95 -92 94 0
-92 -95 0
94 -95 0
92 -94 95 0
c gate 96 10 22 0
10 -96 0
22 -96 0
-10 -22 96 0
c gate 97 9 21 0
9 -97 0
21 -97 0
-9 -21 97 0
c gate 98 -96 -97 0
-96 -98 0
-97 -98 0
96 97 98 0
c gate 99 -95 98 0
-95 -99 0
98 -99 0
95 -98 99 0
c gate 100 -74 -99 0
-74 -100 0
-99 -100 0
74 99 100 0
c gate 101 -73 -100 0
-73 -101 0
-100 -101 0
73 100 101 0
c gate 102 -11 -23 0
-11 -102 0
-23 -102 0
11 23 102 0
c gate 103 -12 -24 0
-12 -103 0
-24 -103 0
12 24 103 0
c gate 104 -102 -103 0
-102 -104 0
-103 -104 0
102 103 104 0
c gate 105 -101 104 0
-101 -105 0
104 -105 0
101 -104 105 0
c gate 106 12 24 0
12 -106 0
24 -106 0
-12 -24 106 0
c gate 107 -64 -106 0
-64 -107 0
-106 -107 0
64 106 107 0
c gate 108 -105 107 0
-105 -108 0
107 -108 0
105 -107 108 0
c gate 109 3 15 0
3 -109 0
15 -109 0
-3 -15 109 0
c gate 110 -3 -15 0
-3 -110 0
-15 -110 0
3 15 110 0
c gate 111 -65 -110 0
-65 -111 0
-110 -111 0
65 110 111 0
c gate 112 -109 111 0
-109 -112 0
111 -112 0
109 -111 112 0
c gate 113 -108 112 0
-108 -113 0
112 -113 0
108 -112 113 0
c gate 114 -25 62 0
-25 -114 0
62 -114 0
25 -62 114 0
c gate 115 59 114 0
59 -115 0
114 -115 0
-59 -114 115 0
c gate 116 -74 -93 0
-74 -116 0
-93 -116 0
74 93 116 0
c gate 117 -96 -116 0
-96 -117 0
-116 -117 0
96 116 117 0
c gate 118 -102 -117 0
-102 -118 0
-117 -118 0
102 117 118 0
c gate 119 101 118 0
101 -119 0
118 -119 0
-101 -118 119 0
c gate 120 99 116 0
99 -120 0
116 -120 0
-99 -116 120 0
c gate 121 -74 -96 0
-74 -121 0
-96 -121 0
74 96 121 0
c gate 122 55 -121 0
55 -122 0
-121 -122 0
-55 121 122 0
c gate 123 45 -97 0
45 -123 0
-97 -123 0
-45 97 123 0
c gate 124 -93 123 0
-93 -124 0
123 -124 0
93 -123 124 0
c gate 125 -92 -124 0
-92 -125 0
-124 -125 0
92 124 125 0
c gate 126 -50 125 0
-50 -126 0
125 -126 0
50 -125 126 0
c gate 127 -122 126 0
-122 -127 0
126 -127 0
122 -126 127 0
c gate 128 -120 127 0
-120 -128 0
127 -128 0
120 -127 128 0
c gate 129 -119 128 0
-119 -129 0
128 -129 0
119 -128 129 0
c gate 130 -115 129 0
-115 -130 0
129 -130 0
115 -129 130 0
c gate 131 -113 130 0
-113 -131 0
130 -131 0
113 -130 131 0
c gate 132 -72 131 0
-72 -132 0
131 -132 0
72 -131 132 0
c PO
-132 0
